3
50
12688
[[885,244,290,489, 93,959,429,636,511,160,586,267,228,916,547,847,583,874,844,878,517,224,838,907,936, 96,896, 69,707,267,954,399,677,695,943,137,405,523,429,905,126,679,600,820,241, 84, 19,240,339,370],
 [115,756,710,511,907, 41,571,364,489,840,414,733,772, 84,453,153,417,126,156,122,483,776,162, 93, 64,904,104,931,293,733, 46,601,323,305, 57,863,595,477,571, 95,874,321,400,180,759,916,981,760,661,630],
 [ 12, 70, 10, 32, 55, 18, 23, 96, 20, 47, 22, 59, 12, 64, 50, 77, 41,  5, 29, 23, 71, 90, 57, 14, 41, 48, 48, 37, 74, 92,  4,  8, 25, 57, 35, 23, 68,  4, 40, 73,  1, 63, 66, 83, 13,  7, 95, 46, 15, 42]]
[406,841,874,399,282,382, 68,525,727,378,741,784,581,395,662,611,504,276,779,714,477,208,933,780,136,625,372,412,412, 83, 53,985,294,955,850,115, 15,258, 35,932,853,441,752,913,633,118,808,931, 10, 58]